NAME : amtsp.-78714.tour
COMMENT : Length = -78714
COMMENT : Found by LKH [Keld Helsgaun] Mon Apr 15 11:15:44 2024
TYPE : TOUR
DIMENSION : 101
TOUR_SECTION
1
2
3
4
5
6
7
9
8
11
10
93
14
15
16
87
86
17
18
19
20
13
12
21
22
23
24
81
82
79
80
25
26
27
28
36
35
34
33
74
73
72
67
66
51
50
49
48
47
56
55
54
53
52
65
64
63
62
61
60
59
58
57
46
45
44
43
42
69
68
71
70
41
40
39
38
37
29
30
31
32
75
76
77
78
83
84
85
88
89
90
91
92
94
95
96
97
98
99
100
101
-1
EOF
